c description: Random 3-CNF over 18 variables and 77 clauses
c generator: CNFgen (0.9.2)
c copyright: (C) 2012-2022 Massimo Lauria <massimo.lauria@uniroma1.it>
c url: https://massimolauria.net/cnfgen
c command line: cnfgen --output CNF_4.28/18_bit_77_996.cnf randkcnf 3 18 77
c
p cnf 18 77
1 4 -15 0
-2 4 -5 0
2 -5 -18 0
-3 4 -10 0
3 9 -10 0
-3 8 16 0
-1 10 -15 0
3 4 -6 0
-3 6 9 0
-9 10 12 0
-1 -9 -18 0
-8 9 14 0
-1 4 -10 0
5 13 -16 0
1 -9 -17 0
5 -10 -13 0
5 -9 10 0
4 -7 -8 0
-1 17 -18 0
4 5 6 0
-11 -14 16 0
-3 13 18 0
-7 -13 16 0
1 14 -17 0
-1 4 18 0
-4 -7 -17 0
-6 7 -9 0
-6 7 13 0
-5 -12 17 0
5 11 12 0
-5 8 9 0
6 -11 13 0
3 -8 -12 0
7 -16 -18 0
3 -7 14 0
-3 -13 15 0
-9 -16 -18 0
9 -12 18 0
-8 -10 14 0
-4 8 -15 0
4 6 12 0
-6 -12 16 0
-8 -12 -18 0
-4 6 8 0
-2 -6 -17 0
4 12 -16 0
-3 5 9 0
-3 5 12 0
-4 15 -18 0
3 6 10 0
-2 9 -14 0
6 8 13 0
4 -5 -6 0
8 9 -11 0
-9 -11 14 0
6 9 11 0
-1 -13 18 0
3 -7 12 0
2 -4 9 0
-2 16 -17 0
7 -16 18 0
-3 -10 15 0
5 -6 8 0
5 7 15 0
5 13 -17 0
-2 -5 -13 0
4 -15 -18 0
-1 -4 14 0
3 -7 17 0
-4 -7 11 0
-4 17 18 0
1 4 -14 0
-10 -14 18 0
1 15 17 0
9 10 -14 0
-5 14 -17 0
9 13 15 0
